p cnf 21 48
a 17 14 0
e 1 2 3 4 5 6 7 8 9 10 11 12 13 15 16 18 19 20 21 0
-2 3 -4 0
2 -3 -4 0
-2 -3 4 0
2 3 4 0
5 -1 0
5 4 0
1 -4 -5 0
8 -6 0
8 -7 0
6 7 -8 0
9 5 0
9 8 0
-5 -8 -9 0
-10 -2 0
-10 6 0
2 -6 10 0
11 -12 -13 0
-11 12 -13 0
11 12 13 0
-11 -12 13 0
10 -13 -14 0
-10 13 -14 0
10 13 14 0
-10 -13 14 0
-16 -15 0
-16 -1 0
15 1 16 0
-17 -7 0
-17 -16 0
7 16 17 0
14 -17 -18 0
-14 17 -18 0
14 17 18 0
-14 -17 18 0
19 -9 0
19 -18 0
9 18 -19 0
-20 -2 0
-20 -1 0
2 1 20 0
21 19 0
21 20 0
-19 -20 -21 0
-20 -10 19 0
-15 21 18 4 -19 -8 0
-18 -5 17 -3 -11 21 4 0
-16 19 -9 14 -7 0
21 0
